b=1 type=0 x=127 y=188
b=2 type=0 x=125 y=201
b=3 type=0 x=123 y=64
b=4 type=0 x=122 y=120
b=5 type=1 x=206 y=63
b=6 type=1 x=193 y=63
b=7 type=2 x=81 y=232
b=8 type=2 x=76 y=42
b=9 type=3 x=63 y=232
b=10 type=3 x=57 y=42
b=11 type=4 x=113 y=6
b=12 type=4 x=109 y=200
b=13 type=4 x=104 y=175
b=14 type=5 x=99 y=232
b=15 type=5 x=99 y=32
b=16 type=5 x=93 y=18
b=17 type=5 x=20 y=148
b=18 type=5 x=5 y=19
b=19 type=6 x=93 y=193
b=20 type=6 x=77 y=196
b=21 type=7 x=5 y=68
b=22 type=8 x=19 y=102
b=23 type=8 x=5 y=33
b=24 type=9 x=120 y=170
b=25 type=9 x=116 y=232
b=26 type=9 x=113 y=188
b=27 type=9 x=102 y=46
b=28 type=9 x=45 y=80
b=29 type=10 x=56 y=55
b=30 type=10 x=5 y=48
b=31 type=10 x=5 y=41
b=32 type=10 x=79 y=34
b=33 type=10 x=79 y=27
b=34 type=11 x=231 y=64
b=35 type=12 x=130 y=232
b=36 type=12 x=97 y=1
b=37 type=13 x=219 y=64
b=38 type=13 x=123 y=47
b=39 type=14 x=44 y=232
b=40 type=14 x=26 y=89
b=41 type=15 x=179 y=83
b=42 type=15 x=161 y=83
b=43 type=16 x=86 y=1
b=44 type=16 x=26 y=110
b=45 type=17 x=123 y=19
b=46 type=18 x=73 y=1
b=47 type=19 x=123 y=76
b=48 type=19 x=243 y=65
b=49 type=20 x=5 y=55
b=50 type=20 x=1 y=89
----------
